plate_width = 18;
n_circuits = 16;
n_shapes = 29;
widths = [3, 3, 3, 3, 3, 3, 3, 3, 4, 4, 4, 4, 5, 5, 5, 5];
lengths = [3, 4, 5, 6, 7, 8, 10, 11, 3, 4, 5, 6, 3, 4, 5, 6];
sizes = [| 3, 3 | 3, 4 | 4, 3 | 3, 5 | 5, 3 | 3, 6 | 6, 3 | 3, 7 | 7, 3 | 3, 8 | 8, 3 | 3, 10 | 10, 3 | 3, 11 | 11, 3 | 4, 3 | 3, 4 | 4, 4 | 4, 5 | 5, 4 | 4, 6 | 6, 4 | 5, 3 | 3, 5 | 5, 4 | 4, 5 | 5, 5 | 5, 6 | 6, 5 |];
offsets = [| 0, 0 | 0, 0 | 0, 0 | 0, 0 | 0, 0 | 0, 0 | 0, 0 | 0, 0 | 0, 0 | 0, 0 | 0, 0 | 0, 0 | 0, 0 | 0, 0 | 0, 0 | 0, 0 | 0, 0 | 0, 0 | 0, 0 | 0, 0 | 0, 0 | 0, 0 | 0, 0 | 0, 0 | 0, 0 | 0, 0 | 0, 0 | 0, 0 | 0, 0 |];
shapes = [{1}, {2}, {3}, {4}, {5}, {6}, {7}, {8}, {9}, {10}, {11}, {12}, {13}, {14}, {15}, {16}, {17}, {18}, {19}, {20}, {21}, {22}, {23}, {24}, {25}, {26}, {27}, {28}, {29}];
valid_shapes = [{1}, {2, 3}, {4, 5}, {6, 7}, {8, 9}, {10, 11}, {12, 13}, {14, 15}, {16, 17}, {18}, {19, 20}, {21, 22}, {24, 23}, {25, 26}, {27}, {28, 29}];